p cnf 334 114
e 274 273 272 271 270 269 276 275 282 281 284 283 290 289 288 287 286 285 292 291 301 300 304 303 302 306 305 0
a 278 277 280 279 294 293 297 296 295 299 298 0
e 307 308 309 310 311 312 313 314 315 316 317 318 319 320 321 322 323 324 325 326 327 328 329 330 331 332 333 334 0
  333  334 0
  -333  -308  -279  -276  -275 0
  -333  -308  -279  -275  276  279 0
  -333  -308  -279  -276  275  279 0
  -333  -308  275  276  279 0
  -333  -307  275  276  277 0
  -333  -307  -277  -276  275  277 0
  -333  -307  -277  -275  276  277 0
  -333  -307  -277  -276  -275 0
  -333  307  308 0
  -333  -309  -276  281 0
  -333  -309  -281  276 0
  -333  -309  -275  281 0
  -333  -309  -281  275 0
  -333  -310  -276  283 0
  -333  -310  -283  276 0
  -333  -310  -275  283 0
  -333  -310  -283  275 0
  -333  309  310 0
  -334  331  332 0
  -334  -332  -305  291 0
  -334  -332  -291  305 0
  -334  -332  -306  292 0
  -334  -332  -292  306 0
  -334  -332  -305  -287  -285  289 0
  -334  -332  -289  -287  -285  305 0
  -334  -332  -305  -289  -285  287 0
  -334  -332  -285  287  289  305 0
  -334  -332  -305  -289  -287  285 0
  -334  -332  -287  285  289  305 0
  -334  -332  -305  285  287  289 0
  -334  -332  -289  285  287  305 0
  -334  -332  -330  -306  285  287 0
  -334  -332  -330  -306  287  305 0
  -334  -332  -330  -306  285  305 0
  -334  -332  -330  -306  305 0
  -334  -332  -329  -306  287 0
  -334  -332  -329  -306  285 0
  -334  -332  -306  329  330 0
  -334  -332  -287  -285  306 0
  -334  -332  -305  -287  306 0
  -334  -332  -305  -285  306 0
  -334  -331  -300  291 0
  -334  -331  -291  300 0
  -334  -331  -301  292 0
  -334  -331  -292  301 0
  -334  -331  -302  285  287 0
  -334  -331  -302  -287  -285 0
  -334  -331  -287  285  302 0
  -334  -331  -285  287  302 0
  -334  -331  -289  300  302 0
  -334  -331  -302  -300  -289 0
  -334  -331  -300  289  302 0
  -334  -331  -302  289  300 0
  -334  -331  -303  285 0
  -334  -331  -303  287 0
  -334  -331  -287  -285  303 0
  -334  -331  -304  302 0
  -334  -331  -304  300 0
  -334  -331  -302  -300  304 0
  -334  -331  -301  303  304 0
  -334  -331  -303  301 0
  -334  -331  -304  301 0
  -334  327  328 0
  -334  -328  -326  -324  -299  -287  -285 0
  -334  -328  -326  -324  -299  -298  -287 0
  -334  -328  -326  -324  -299  -298  -285 0
  -334  -328  -326  -324  -322  285  287  299 0
  -334  -328  -326  -324  -322  287  298  299 0
  -334  -328  -326  -324  -322  285  298  299 0
  -334  -328  -326  -324  -322  298  299 0
  -334  -328  -326  -324  -321  287  299 0
  -334  -328  -326  -324  -321  285  299 0
  -334  -328  -326  -324  299  321  322 0
  -334  -328  -326  -323  285  287  289  298 0
  -334  -328  -326  -323  -298  -289  285  287 0
  -334  -328  -326  -323  -289  -287  285  298 0
  -334  -328  -326  -323  -298  -287  285  289 0
  -334  -328  -326  -323  -289  -285  287  298 0
  -334  -328  -326  -323  -298  -285  287  289 0
  -334  -328  -326  -323  -287  -285  289  298 0
  -334  -328  -326  -323  -298  -289  -287  -285 0
  -334  -328  -326  323  324 0
  -334  -328  -325  291  292  298  299 0
  -334  -328  -325  -299  -292  291  298 0
  -334  -328  -325  -298  -291  292  299 0
  -334  -328  -325  -299  -298  -292  -291 0
  -334  -328  325  326 0
  -334  -327  319  320 0
  -334  -327  -319  -294  -293  -292  -291 0
  -334  -327  -319  -293  -291  292  294 0
  -334  -327  -319  -294  -292  291  293 0
  -334  -327  -319  291  292  293  294 0
  -334  -327  -320  317  318 0
  -334  -327  -320  -318  -296  -294 0
  -334  -327  -320  -318  -297  -294 0
  -334  -327  -320  -318  294  296  297 0
  -334  -327  -320  -317  315  316 0
  -334  -327  -320  -317  -316  -297  -295  -293 0
  -334  -327  -320  -317  -316  295  297 0
  -334  -327  -320  -317  -316  293  297 0
  -334  -327  -320  -317  -315  313  314 0
  -334  -327  -320  -317  -315  -314  -296  -287  -285 0
  -334  -327  -320  -317  -315  -314  285  296 0
  -334  -327  -320  -317  -315  -314  287  296 0
  -334  -327  -320  -317  -315  -313  311  312 0
  -334  -327  -320  -317  -315  -313  -311  -295  -287  285 0
  -334  -327  -320  -317  -315  -313  -311  -295  -285  287 0
  -334  -327  -320  -317  -315  -313  -311  285  287  295 0
  -334  -327  -320  -317  -315  -313  -311  -287  -285  295 0
  -334  -327  -320  -317  -315  -313  -312  -295  -293  289 0
  -334  -327  -320  -317  -315  -313  -312  289  293  295 0
  -334  -327  -320  -317  -315  -313  -312  -295  -289  293 0
  -334  -327  -320  -317  -315  -313  -312  -293  -289  295 0
